proyfinal/src/viki/013/andrea/andrea-localstore/experimentInOfficeAgust.take6/worker_9/33a8d2cf-3ead-4a14-88f0-aa6ef1bf38ca.als.cnf.out
Reading from standard input... Use '--help' for help.
============================[ Problem Statistics ]=============================
|                                                                             |
|  Number of variables:         87638                                         |
|  Number of clauses:          161767                                         |
|  Parse time:                   0.03 s                                       |
|                                                                             |
============================[ Search Statistics ]==============================
| Conflicts |          ORIGINAL         |          LEARNT          | Progress |
|           |    Vars  Clauses Literals |    Limit  Clauses Lit/Cl |          |
===============================================================================
|       100 |   63568   109528   273949 |    40160      100     32 | 27.465 % |
|       250 |   63568   109528   273949 |    44176      250     45 | 27.465 % |
|       475 |   63568   109528   273949 |    48593      475     60 | 27.465 % |
|       812 |   63568   109528   273949 |    53453      812    142 | 27.465 % |
|      1318 |   63197   108646   271862 |    58798     1296    126 | 27.889 % |
|      2077 |   63197   108052   270300 |    64678     2016    148 | 27.889 % |
|      3216 |   63197   108052   270300 |    71146     3155    134 | 27.889 % |
===============================================================================
restarts              : 16
conflicts             : 3294           (5558 /sec)
decisions             : 18177          (0.00 % random) (30672 /sec)
propagations          : 5722076        (9655557 /sec)
conflict literals     : 430204         (46.47 % deleted)
Memory used           : 24.57 MB
CPU time              : 0.59262 s

UNSATISFIABLE
